; Insertion sort
(declare-datatypes (a)
  ((list :source |Prelude.[]| (nil :source |Prelude.[]|)
     (cons :source |Prelude.:| (head a) (tail (list a))))))
(define-fun-rec
  (par (a)
    (insert :source Sort.insert
       ((x a) (y (list a))) (list a)
       (match y
         (case nil (cons x (as nil (list a))))
         (case (cons z xs)
           (ite (<= x z) (cons x y) (cons z (insert x xs))))))))
(define-fun-rec
  (par (a)
    (isort :source Sort.isort
       ((x (list a))) (list a)
       (match x
         (case nil (as nil (list a)))
         (case (cons y xs) (insert y (isort xs)))))))
(define-fun-rec
  (par (a)
    (count :source SortUtils.count
       ((x a) (y (list a))) Int
       (match y
         (case nil 0)
         (case (cons z ys)
           (ite (= x z) (+ 1 (count x ys)) (count x ys)))))))
(prove
  :source Sort.prop_ISortCount
  (forall ((x Int) (y (list Int)))
    (= (count x (isort y)) (count x y))))
